50
14772

59 247
169 270
444 975
611 759
506 628
250 458
389 28
205 980
172 552
321 349
135 1000
238 591
746 389
399 793
971 37
624 643
159 216
90 414
485 667
593 327
454 591
874 635
837 74
742 377
754 580
969 672
970 495
656 793
981 82
604 286
634 720
442 74
599 524
738 291
821 291
795 774
325 344
415 14
965 990
335 745
187 233
419 200
845 485
982 369
788 321
324 740
979 68
160 818
298 297
625 595
